34
 1 306 9
 2 561 17
 3 288 9
 4 341 11
 5 450 15
 6 377 13
 7 28 1
 8 405 15
 9 78 3
 10 425 17
 11 456 19
 12 460 20
 13 396 18
 14 357 17
 15 160 8
 16 285 15
 17 144 8
 18 187 11
 19 272 17
 20 90 6
 21 28 2
 22 13 1
 23 168 14
 24 55 5
 25 130 13
 26 9 1
 27 48 6
 28 56 8
 29 30 5
 30 25 5
 31 16 4
 32 33 11
 33 34 17
 34 2 2
34